32      4       
10      10      10      10      
0       0       0       0       0       15      2       3       5       6       7       10      11      12      25      26      27      28      29      30      31      
5       0       1       1       1       7       4       8       15      17      18      23      24      
2       1       0       5       4       6       9       15      16      17      18      22      
5       6       5       0       5       2       14      19      
4       1       0       3       3       2       16      21      
10      4       4       4       0       2       14      20      
2       2       0       7       4       2       13      15      
1       3       3       5       0       1       13      
7       4       3       0       6       1       13      
10      6       4       0       4       1       13      
2       5       0       2       3       1       14      
5       5       0       4       6       1       13      
10      1       6       3       0       1       32      
9       7       3       0       2       1       32      
4       4       6       0       3       1       32      
6       5       0       3       3       1       32      
5       7       5       0       3       1       32      
9       3       2       4       0       1       32      
3       4       3       0       4       1       32      
2       0       4       5       4       1       32      
1       3       4       0       3       1       32      
6       2       0       4       3       1       32      
6       0       5       1       5       1       32      
1       5       4       6       0       1       32      
4       4       6       5       0       1       32      
10      9       2       5       0       1       32      
10      1       0       2       10      1       32      
1       5       5       0       3       1       32      
1       0       5       6       5       1       32      
6       3       3       0       4       1       32      
7       4       5       5       0       1       32      
0       0       0       0       0       0       
